Version identifier: 20.1.0.0 | 2020-11-10 | 9bedb6d68
Tried aggregator 2 times.
MIP Presolve eliminated 956 rows and 562 columns.
MIP Presolve modified 1728 coefficients.
Aggregator did 80 substitutions.
Reduced MIP has 670 rows, 565 columns, and 2105 nonzeros.
Reduced MIP has 145 binaries, 420 generals, 0 SOSs, and 0 indicators.
Presolve time = 0.01 sec. (3.52 ticks)
Found incumbent of value 850.000000 after 0.01 sec. (5.46 ticks)
Probing fixed 20 vars, tightened 193 bounds.
Probing time = 0.00 sec. (0.52 ticks)
Tried aggregator 2 times.
MIP Presolve eliminated 297 rows and 71 columns.
MIP Presolve modified 90 coefficients.
Aggregator did 31 substitutions.
Reduced MIP has 342 rows, 463 columns, and 1101 nonzeros.
Reduced MIP has 181 binaries, 282 generals, 0 SOSs, and 0 indicators.
Presolve time = 0.00 sec. (1.52 ticks)
Probing time = 0.00 sec. (0.10 ticks)
Tried aggregator 1 time.
Detecting symmetries...
MIP Presolve modified 114 coefficients.
Reduced MIP has 342 rows, 463 columns, and 1101 nonzeros.
Reduced MIP has 181 binaries, 282 generals, 0 SOSs, and 0 indicators.
Presolve time = 0.00 sec. (0.85 ticks)
Probing time = 0.00 sec. (0.09 ticks)
Clique table members: 21.
MIP emphasis: balance optimality and feasibility.
MIP search method: dynamic search.
Parallel mode: deterministic, using up to 24 threads.
Root relaxation solution time = 0.00 sec. (0.96 ticks)

        Nodes                                         Cuts/
   Node  Left     Objective  IInf  Best Integer    Best Bound    ItCnt     Gap

*     0+    0                          850.0000        0.0000           100.00%
*     0+    0                           29.0000        0.0000           100.00%
      0     0        1.0000    41       29.0000        1.0000      131   96.55%
*     0+    0                           13.0000        1.0000            92.31%
      0     0        3.2000    96       13.0000      Cuts: 62      276   75.38%
      0     0        4.0000   140       13.0000      Cuts: 99      332   69.23%
      0     0        4.2857   159       13.0000      Cuts: 60      406   67.03%
      0     0        4.7500   161       13.0000      Cuts: 62      450   63.46%
      0     0        4.7500   162       13.0000      Cuts: 47      498   63.46%
      0     0        4.8438   117       13.0000      Cuts: 35      553   62.74%
      0     0        5.2755   152       13.0000      Cuts: 49      598   59.42%
      0     0        5.3114   162       13.0000      Cuts: 46      625   59.14%
      0     0        5.3411   162       13.0000      Cuts: 38      664   58.91%
      0     0        5.3723   172       13.0000      Cuts: 36      706   58.67%
      0     0        5.3723   180       13.0000      Cuts: 38      745   58.67%
*     0+    0                           10.0000        5.3723            46.28%
      0     0        cutoff             10.0000       10.0000      745    0.00%
Elapsed time = 0.15 sec. (63.07 ticks, tree = 0.01 MB, solutions = 4)

Cover cuts applied:  1
Implied bound cuts applied:  5
Flow cuts applied:  1
Mixed integer rounding cuts applied:  6
Zero-half cuts applied:  26
Lift and project cuts applied:  1

Root node processing (before b&c):
  Real time             =    0.15 sec. (63.14 ticks)
Parallel b&c, 24 threads:
  Real time             =    0.00 sec. (0.00 ticks)
  Sync time (average)   =    0.00 sec.
  Wait time (average)   =    0.00 sec.
                          ------------
Total (root+branch&cut) =    0.15 sec. (63.14 ticks)

Solution status = Optimal
Solution LB = 10
Solution UB = 10
Runtime = 0.157629 seconds
	Command being timed: "/home/min/git_repos/CS598MEBProject/CNT-ILP/build/cnt -s 2 ./output/k6_n20/simC_c1_k6_n20_u1_s3_del04.input-right.cnp"
	User time (seconds): 1.11
	System time (seconds): 0.05
	Percent of CPU this job got: 680%
	Elapsed (wall clock) time (h:mm:ss or m:ss): 0:00.17
	Average shared text size (kbytes): 0
	Average unshared data size (kbytes): 0
	Average stack size (kbytes): 0
	Average total size (kbytes): 0
	Maximum resident set size (kbytes): 50920
	Average resident set size (kbytes): 0
	Major (requiring I/O) page faults: 0
	Minor (reclaiming a frame) page faults: 9754
	Voluntary context switches: 2138
	Involuntary context switches: 126
	Swaps: 0
	File system inputs: 0
	File system outputs: 16
	Socket messages sent: 0
	Socket messages received: 0
	Signals delivered: 0
	Page size (bytes): 4096
	Exit status: 0
